wcsp 100 3 501 512409557603043100
3 3 3 3 3 3 3 3 3 3 3 3 3 3 3 3 3 3 3 3 3 3 3 3 3 3 3 3 3 3 3 3 3 3 3 3 3 3 3 3 3 3 3 3 3 3 3 3 3 3 3 3 3 3 3 3 3 3 3 3 3 3 3 3 3 3 3 3 3 3 3 3 3 3 3 3 3 3 3 3 3 3 3 3 3 3 3 3 3 3 3 3 3 3 3 3 3 3 3 3
2 16 97 0 9
0 0 0
0 1 1
0 2 0
1 0 2
1 1 3
1 2 2
2 0 0
2 1 1
2 2 0
2 2 12 0 9
0 0 0
0 1 2
0 2 2
1 0 2
1 1 3
1 2 2
2 0 0
2 1 0
2 2 0
2 22 49 0 9
0 0 0
0 1 3
0 2 0
1 0 0
1 1 2
1 2 0
2 0 2
2 1 3
2 2 3
2 19 71 0 9
0 0 0
0 1 2
0 2 2
1 0 0
1 1 1
1 2 2
2 0 1
2 1 0
2 2 0
2 57 69 0 9
0 0 0
0 1 1
0 2 0
1 0 3
1 1 1
1 2 3
2 0 1
2 1 0
2 2 0
2 6 49 0 9
0 0 2
0 1 0
0 2 0
1 0 0
1 1 3
1 2 0
2 0 2
2 1 3
2 2 1
2 12 98 0 9
0 0 1
0 1 0
0 2 0
1 0 0
1 1 1
1 2 3
2 0 0
2 1 2
2 2 2
2 7 57 0 9
0 0 2
0 1 0
0 2 0
1 0 0
1 1 2
1 2 2
2 0 1
2 1 0
2 2 3
2 11 76 0 9
0 0 0
0 1 0
0 2 3
1 0 0
1 1 3
1 2 3
2 0 0
2 1 3
2 2 3
2 32 91 0 9
0 0 2
0 1 0
0 2 0
1 0 3
1 1 3
1 2 0
2 0 0
2 1 1
2 2 1
2 25 55 0 9
0 0 1
0 1 3
0 2 1
1 0 0
1 1 0
1 2 0
2 0 0
2 1 3
2 2 2
2 17 63 0 9
0 0 3
0 1 2
0 2 3
1 0 0
1 1 2
1 2 0
2 0 0
2 1 2
2 2 0
2 44 65 0 9
0 0 0
0 1 0
0 2 3
1 0 3
1 1 0
1 2 1
2 0 3
2 1 1
2 2 0
2 16 44 0 9
0 0 1
0 1 1
0 2 0
1 0 0
1 1 0
1 2 1
2 0 0
2 1 3
2 2 2
2 19 98 0 9
0 0 0
0 1 0
0 2 0
1 0 2
1 1 1
1 2 2
2 0 2
2 1 2
2 2 0
2 73 77 0 9
0 0 1
0 1 0
0 2 3
1 0 1
1 1 0
1 2 0
2 0 3
2 1 1
2 2 0
2 38 69 0 9
0 0 1
0 1 0
0 2 1
1 0 2
1 1 0
1 2 0
2 0 1
2 1 1
2 2 0
2 52 60 0 9
0 0 0
0 1 2
0 2 0
1 0 1
1 1 3
1 2 3
2 0 0
2 1 0
2 2 3
2 34 71 0 9
0 0 0
0 1 1
0 2 0
1 0 3
1 1 1
1 2 0
2 0 2
2 1 0
2 2 3
2 67 75 0 9
0 0 0
0 1 1
0 2 0
1 0 3
1 1 1
1 2 2
2 0 0
2 1 0
2 2 2
2 3 84 0 9
0 0 2
0 1 1
0 2 0
1 0 3
1 1 1
1 2 2
2 0 0
2 1 0
2 2 0
2 73 84 0 9
0 0 1
0 1 1
0 2 0
1 0 0
1 1 0
1 2 1
2 0 0
2 1 2
2 2 1
2 82 93 0 9
0 0 0
0 1 0
0 2 2
1 0 3
1 1 3
1 2 0
2 0 1
2 1 0
2 2 2
2 50 59 0 9
0 0 1
0 1 0
0 2 0
1 0 3
1 1 3
1 2 2
2 0 0
2 1 0
2 2 2
2 15 27 0 9
0 0 2
0 1 0
0 2 3
1 0 3
1 1 2
1 2 1
2 0 0
2 1 0
2 2 0
2 55 70 0 9
0 0 1
0 1 0
0 2 0
1 0 2
1 1 3
1 2 1
2 0 1
2 1 0
2 2 0
2 6 37 0 9
0 0 0
0 1 2
0 2 1
1 0 2
1 1 0
1 2 1
2 0 1
2 1 0
2 2 0
2 46 98 0 9
0 0 0
0 1 1
0 2 2
1 0 1
1 1 0
1 2 1
2 0 1
2 1 0
2 2 0
2 53 91 0 9
0 0 2
0 1 2
0 2 0
1 0 3
1 1 0
1 2 2
2 0 0
2 1 0
2 2 1
2 53 74 0 9
0 0 0
0 1 1
0 2 0
1 0 3
1 1 1
1 2 0
2 0 2
2 1 2
2 2 0
2 4 11 0 9
0 0 2
0 1 0
0 2 0
1 0 1
1 1 0
1 2 0
2 0 3
2 1 3
2 2 3
2 34 53 0 9
0 0 0
0 1 1
0 2 1
1 0 0
1 1 1
1 2 0
2 0 2
2 1 0
2 2 1
2 48 81 0 9
0 0 0
0 1 0
0 2 3
1 0 0
1 1 3
1 2 1
2 0 0
2 1 3
2 2 3
2 26 29 0 9
0 0 3
0 1 0
0 2 2
1 0 1
1 1 0
1 2 3
2 0 0
2 1 2
2 2 0
2 41 73 0 9
0 0 0
0 1 1
0 2 0
1 0 3
1 1 3
1 2 3
2 0 1
2 1 0
2 2 0
2 17 85 0 9
0 0 1
0 1 3
0 2 1
1 0 0
1 1 3
1 2 3
2 0 0
2 1 0
2 2 0
2 35 56 0 9
0 0 3
0 1 0
0 2 0
1 0 3
1 1 3
1 2 0
2 0 3
2 1 0
2 2 3
2 19 53 0 9
0 0 3
0 1 3
0 2 0
1 0 3
1 1 0
1 2 0
2 0 2
2 1 0
2 2 3
2 27 98 0 9
0 0 3
0 1 2
0 2 0
1 0 0
1 1 2
1 2 0
2 0 2
2 1 3
2 2 0
2 6 96 0 9
0 0 0
0 1 3
0 2 0
1 0 2
1 1 2
1 2 1
2 0 0
2 1 0
2 2 3
2 58 88 0 9
0 0 0
0 1 1
0 2 0
1 0 3
1 1 2
1 2 0
2 0 0
2 1 1
2 2 3
2 7 32 0 9
0 0 0
0 1 0
0 2 1
1 0 1
1 1 0
1 2 2
2 0 1
2 1 0
2 2 1
2 4 76 0 9
0 0 0
0 1 0
0 2 1
1 0 1
1 1 3
1 2 2
2 0 0
2 1 1
2 2 0
2 7 86 0 9
0 0 0
0 1 1
0 2 2
1 0 0
1 1 3
1 2 2
2 0 3
2 1 0
2 2 0
2 5 30 0 9
0 0 2
0 1 2
0 2 3
1 0 0
1 1 0
1 2 0
2 0 3
2 1 3
2 2 0
2 18 93 0 9
0 0 1
0 1 0
0 2 2
1 0 3
1 1 2
1 2 0
2 0 1
2 1 0
2 2 0
2 32 85 0 9
0 0 0
0 1 2
0 2 0
1 0 0
1 1 2
1 2 1
2 0 1
2 1 2
2 2 0
2 85 91 0 9
0 0 0
0 1 0
0 2 3
1 0 2
1 1 1
1 2 3
2 0 3
2 1 0
2 2 0
2 10 16 0 9
0 0 0
0 1 0
0 2 0
1 0 2
1 1 2
1 2 3
2 0 0
2 1 3
2 2 3
2 25 68 0 9
0 0 0
0 1 0
0 2 2
1 0 2
1 1 1
1 2 2
2 0 0
2 1 1
2 2 0
2 10 28 0 9
0 0 1
0 1 0
0 2 0
1 0 1
1 1 3
1 2 0
2 0 0
2 1 2
2 2 1
2 34 49 0 9
0 0 2
0 1 0
0 2 2
1 0 0
1 1 3
1 2 0
2 0 0
2 1 1
2 2 3
2 35 76 0 9
0 0 0
0 1 2
0 2 3
1 0 3
1 1 0
1 2 1
2 0 3
2 1 0
2 2 0
2 27 28 0 9
0 0 3
0 1 0
0 2 1
1 0 3
1 1 0
1 2 0
2 0 2
2 1 2
2 2 0
2 77 99 0 9
0 0 0
0 1 2
0 2 1
1 0 0
1 1 3
1 2 3
2 0 0
2 1 2
2 2 0
2 34 73 0 9
0 0 0
0 1 3
0 2 2
1 0 0
1 1 1
1 2 3
2 0 0
2 1 0
2 2 1
2 23 65 0 9
0 0 2
0 1 0
0 2 1
1 0 2
1 1 2
1 2 3
2 0 0
2 1 0
2 2 0
2 6 65 0 9
0 0 0
0 1 0
0 2 1
1 0 1
1 1 0
1 2 0
2 0 1
2 1 3
2 2 3
2 47 61 0 9
0 0 0
0 1 1
0 2 3
1 0 0
1 1 2
1 2 0
2 0 2
2 1 2
2 2 0
2 5 33 0 9
0 0 3
0 1 3
0 2 3
1 0 3
1 1 0
1 2 0
2 0 0
2 1 3
2 2 0
2 27 34 0 9
0 0 2
0 1 2
0 2 3
1 0 0
1 1 0
1 2 0
2 0 1
2 1 0
2 2 1
2 1 68 0 9
0 0 2
0 1 0
0 2 0
1 0 0
1 1 2
1 2 0
2 0 3
2 1 1
2 2 1
2 17 79 0 9
0 0 0
0 1 0
0 2 2
1 0 2
1 1 2
1 2 0
2 0 0
2 1 3
2 2 2
2 5 88 0 9
0 0 2
0 1 2
0 2 0
1 0 1
1 1 0
1 2 2
2 0 1
2 1 0
2 2 0
2 18 55 0 9
0 0 0
0 1 2
0 2 0
1 0 0
1 1 2
1 2 0
2 0 3
2 1 1
2 2 3
2 44 95 0 9
0 0 0
0 1 3
0 2 0
1 0 0
1 1 0
1 2 2
2 0 1
2 1 3
2 2 1
2 3 38 0 9
0 0 0
0 1 2
0 2 0
1 0 2
1 1 2
1 2 1
2 0 1
2 1 0
2 2 0
2 69 76 0 9
0 0 2
0 1 2
0 2 0
1 0 0
1 1 3
1 2 0
2 0 3
2 1 1
2 2 0
2 42 79 0 9
0 0 3
0 1 0
0 2 0
1 0 1
1 1 1
1 2 2
2 0 2
2 1 0
2 2 0
2 62 79 0 9
0 0 3
0 1 0
0 2 0
1 0 2
1 1 0
1 2 0
2 0 3
2 1 1
2 2 3
2 24 29 0 9
0 0 1
0 1 3
0 2 1
1 0 2
1 1 0
1 2 0
2 0 0
2 1 0
2 2 2
2 74 96 0 9
0 0 2
0 1 0
0 2 1
1 0 2
1 1 2
1 2 0
2 0 0
2 1 0
2 2 1
2 30 68 0 9
0 0 3
0 1 0
0 2 3
1 0 3
1 1 2
1 2 0
2 0 0
2 1 0
2 2 1
2 11 35 0 9
0 0 0
0 1 0
0 2 2
1 0 1
1 1 2
1 2 0
2 0 3
2 1 2
2 2 0
2 17 53 0 9
0 0 3
0 1 0
0 2 1
1 0 0
1 1 3
1 2 0
2 0 1
2 1 0
2 2 3
2 76 98 0 9
0 0 2
0 1 3
0 2 0
1 0 0
1 1 2
1 2 0
2 0 1
2 1 0
2 2 1
2 19 74 0 9
0 0 0
0 1 1
0 2 1
1 0 0
1 1 1
1 2 3
2 0 1
2 1 0
2 2 0
2 43 63 0 9
0 0 1
0 1 1
0 2 1
1 0 0
1 1 0
1 2 0
2 0 2
2 1 3
2 2 0
2 53 75 0 9
0 0 0
0 1 0
0 2 2
1 0 0
1 1 3
1 2 2
2 0 1
2 1 0
2 2 2
2 29 98 0 9
0 0 0
0 1 2
0 2 1
1 0 0
1 1 0
1 2 3
2 0 0
2 1 1
2 2 3
2 13 56 0 9
0 0 2
0 1 2
0 2 0
1 0 2
1 1 3
1 2 0
2 0 0
2 1 0
2 2 3
2 20 78 0 9
0 0 0
0 1 2
0 2 0
1 0 1
1 1 2
1 2 1
2 0 1
2 1 0
2 2 0
2 41 64 0 9
0 0 0
0 1 1
0 2 0
1 0 0
1 1 1
1 2 1
2 0 3
2 1 3
2 2 0
2 14 69 0 9
0 0 0
0 1 0
0 2 3
1 0 0
1 1 1
1 2 3
2 0 0
2 1 3
2 2 1
2 80 82 0 9
0 0 3
0 1 1
0 2 0
1 0 1
1 1 1
1 2 0
2 0 0
2 1 3
2 2 0
2 17 37 0 9
0 0 0
0 1 1
0 2 0
1 0 1
1 1 3
1 2 3
2 0 3
2 1 0
2 2 0
2 44 94 0 9
0 0 2
0 1 0
0 2 0
1 0 3
1 1 2
1 2 0
2 0 2
2 1 1
2 2 0
2 89 92 0 9
0 0 0
0 1 1
0 2 0
1 0 0
1 1 1
1 2 3
2 0 0
2 1 3
2 2 1
2 38 58 0 9
0 0 0
0 1 3
0 2 3
1 0 3
1 1 2
1 2 0
2 0 0
2 1 3
2 2 0
2 15 85 0 9
0 0 0
0 1 1
0 2 3
1 0 0
1 1 2
1 2 0
2 0 1
2 1 0
2 2 3
2 5 71 0 9
0 0 2
0 1 0
0 2 0
1 0 3
1 1 2
1 2 0
2 0 3
2 1 1
2 2 0
2 38 40 0 9
0 0 0
0 1 2
0 2 1
1 0 1
1 1 0
1 2 2
2 0 0
2 1 0
2 2 1
2 53 60 0 9
0 0 0
0 1 2
0 2 0
1 0 0
1 1 1
1 2 3
2 0 1
2 1 0
2 2 1
2 0 70 0 9
0 0 0
0 1 0
0 2 2
1 0 0
1 1 2
1 2 1
2 0 1
2 1 0
2 2 2
2 14 82 0 9
0 0 1
0 1 2
0 2 2
1 0 0
1 1 3
1 2 0
2 0 0
2 1 0
2 2 3
2 1 50 0 9
0 0 1
0 1 0
0 2 0
1 0 2
1 1 2
1 2 0
2 0 3
2 1 0
2 2 3
2 45 98 0 9
0 0 0
0 1 1
0 2 3
1 0 0
1 1 3
1 2 0
2 0 3
2 1 2
2 2 0
2 39 78 0 9
0 0 0
0 1 1
0 2 1
1 0 3
1 1 0
1 2 0
2 0 3
2 1 3
2 2 0
2 6 60 0 9
0 0 0
0 1 3
0 2 0
1 0 2
1 1 0
1 2 0
2 0 2
2 1 2
2 2 3
2 9 12 0 9
0 0 0
0 1 1
0 2 0
1 0 3
1 1 1
1 2 0
2 0 2
2 1 0
2 2 3
2 55 92 0 9
0 0 0
0 1 1
0 2 0
1 0 2
1 1 2
1 2 0
2 0 0
2 1 1
2 2 3
2 7 43 0 9
0 0 0
0 1 1
0 2 3
1 0 0
1 1 1
1 2 2
2 0 0
2 1 1
2 2 0
2 40 89 0 9
0 0 1
0 1 1
0 2 0
1 0 3
1 1 0
1 2 2
2 0 0
2 1 0
2 2 2
2 33 79 0 9
0 0 1
0 1 0
0 2 0
1 0 3
1 1 0
1 2 0
2 0 1
2 1 2
2 2 3
2 58 67 0 9
0 0 1
0 1 0
0 2 0
1 0 3
1 1 3
1 2 1
2 0 3
2 1 0
2 2 0
2 33 59 0 9
0 0 0
0 1 1
0 2 0
1 0 3
1 1 2
1 2 1
2 0 0
2 1 1
2 2 0
2 21 87 0 9
0 0 0
0 1 0
0 2 2
1 0 1
1 1 0
1 2 3
2 0 2
2 1 2
2 2 0
2 22 58 0 9
0 0 3
0 1 0
0 2 0
1 0 1
1 1 0
1 2 2
2 0 3
2 1 3
2 2 0
2 43 96 0 9
0 0 0
0 1 1
0 2 3
1 0 0
1 1 0
1 2 1
2 0 2
2 1 1
2 2 0
2 68 74 0 9
0 0 0
0 1 1
0 2 1
1 0 2
1 1 3
1 2 2
2 0 0
2 1 0
2 2 0
2 64 90 0 9
0 0 0
0 1 2
0 2 1
1 0 0
1 1 1
1 2 0
2 0 2
2 1 1
2 2 0
2 14 24 0 9
0 0 3
0 1 2
0 2 0
1 0 3
1 1 0
1 2 0
2 0 2
2 1 0
2 2 3
2 29 96 0 9
0 0 0
0 1 2
0 2 0
1 0 1
1 1 3
1 2 1
2 0 2
2 1 0
2 2 0
2 12 76 0 9
0 0 0
0 1 0
0 2 2
1 0 2
1 1 2
1 2 1
2 0 0
2 1 0
2 2 1
2 65 70 0 9
0 0 3
0 1 0
0 2 3
1 0 0
1 1 2
1 2 1
2 0 2
2 1 0
2 2 0
2 6 56 0 9
0 0 1
0 1 3
0 2 0
1 0 2
1 1 0
1 2 1
2 0 0
2 1 0
2 2 3
2 4 53 0 9
0 0 3
0 1 3
0 2 0
1 0 2
1 1 0
1 2 1
2 0 0
2 1 2
2 2 0
2 37 95 0 9
0 0 1
0 1 0
0 2 2
1 0 1
1 1 3
1 2 0
2 0 3
2 1 0
2 2 0
2 24 38 0 9
0 0 1
0 1 0
0 2 0
1 0 2
1 1 2
1 2 1
2 0 0
2 1 0
2 2 2
2 88 98 0 9
0 0 1
0 1 0
0 2 0
1 0 1
1 1 1
1 2 0
2 0 2
2 1 0
2 2 1
2 26 37 0 9
0 0 1
0 1 0
0 2 3
1 0 3
1 1 0
1 2 2
2 0 0
2 1 2
2 2 0
2 51 57 0 9
0 0 0
0 1 1
0 2 0
1 0 2
1 1 0
1 2 2
2 0 1
2 1 0
2 2 3
2 31 69 0 9
0 0 2
0 1 3
0 2 2
1 0 0
1 1 0
1 2 2
2 0 0
2 1 0
2 2 1
2 25 83 0 9
0 0 1
0 1 0
0 2 3
1 0 0
1 1 1
1 2 2
2 0 0
2 1 3
2 2 0
2 27 51 0 9
0 0 3
0 1 0
0 2 2
1 0 0
1 1 0
1 2 1
2 0 3
2 1 0
2 2 2
2 39 93 0 9
0 0 3
0 1 1
0 2 0
1 0 1
1 1 0
1 2 0
2 0 2
2 1 0
2 2 2
2 94 97 0 9
0 0 0
0 1 0
0 2 1
1 0 0
1 1 0
1 2 3
2 0 3
2 1 2
2 2 2
2 13 43 0 9
0 0 0
0 1 2
0 2 0
1 0 3
1 1 0
1 2 2
2 0 0
2 1 3
2 2 3
2 9 50 0 9
0 0 0
0 1 1
0 2 3
1 0 0
1 1 0
1 2 1
2 0 3
2 1 0
2 2 3
2 39 43 0 9
0 0 0
0 1 3
0 2 1
1 0 3
1 1 0
1 2 0
2 0 3
2 1 0
2 2 3
2 23 59 0 9
0 0 0
0 1 2
0 2 3
1 0 0
1 1 0
1 2 2
2 0 3
2 1 0
2 2 3
2 43 90 0 9
0 0 3
0 1 0
0 2 0
1 0 1
1 1 3
1 2 1
2 0 0
2 1 2
2 2 0
2 24 52 0 9
0 0 3
0 1 2
0 2 0
1 0 0
1 1 0
1 2 3
2 0 0
2 1 3
2 2 1
2 17 44 0 9
0 0 1
0 1 0
0 2 0
1 0 1
1 1 0
1 2 2
2 0 3
2 1 2
2 2 0
2 63 92 0 9
0 0 2
0 1 2
0 2 0
1 0 1
1 1 3
1 2 0
2 0 0
2 1 1
2 2 0
2 34 57 0 9
0 0 0
0 1 0
0 2 0
1 0 3
1 1 1
1 2 0
2 0 2
2 1 1
2 2 2
2 15 71 0 9
0 0 0
0 1 1
0 2 3
1 0 1
1 1 2
1 2 2
2 0 0
2 1 0
2 2 0
2 2 74 0 9
0 0 1
0 1 2
0 2 0
1 0 1
1 1 2
1 2 0
2 0 2
2 1 0
2 2 0
2 84 92 0 9
0 0 3
0 1 0
0 2 2
1 0 0
1 1 3
1 2 1
2 0 0
2 1 1
2 2 0
2 59 73 0 9
0 0 0
0 1 2
0 2 2
1 0 0
1 1 1
1 2 1
2 0 1
2 1 0
2 2 0
2 51 96 0 9
0 0 0
0 1 2
0 2 3
1 0 3
1 1 0
1 2 2
2 0 0
2 1 3
2 2 0
2 10 68 0 9
0 0 0
0 1 0
0 2 0
1 0 0
1 1 2
1 2 1
2 0 3
2 1 2
2 2 2
2 23 82 0 9
0 0 0
0 1 0
0 2 0
1 0 1
1 1 2
1 2 3
2 0 0
2 1 3
2 2 3
2 7 37 0 9
0 0 1
0 1 2
0 2 0
1 0 1
1 1 0
1 2 2
2 0 0
2 1 0
2 2 2
2 26 80 0 9
0 0 3
0 1 3
0 2 0
1 0 3
1 1 3
1 2 3
2 0 0
2 1 0
2 2 0
2 92 94 0 9
0 0 0
0 1 3
0 2 2
1 0 2
1 1 0
1 2 0
2 0 2
2 1 0
2 2 3
2 14 17 0 9
0 0 2
0 1 0
0 2 3
1 0 2
1 1 2
1 2 0
2 0 0
2 1 0
2 2 2
2 2 56 0 9
0 0 0
0 1 1
0 2 3
1 0 2
1 1 0
1 2 0
2 0 0
2 1 3
2 2 3
2 78 94 0 9
0 0 0
0 1 3
0 2 0
1 0 0
1 1 3
1 2 2
2 0 1
2 1 0
2 2 1
2 2 24 0 9
0 0 0
0 1 0
0 2 0
1 0 0
1 1 2
1 2 1
2 0 3
2 1 3
2 2 1
2 21 77 0 9
0 0 2
0 1 2
0 2 0
1 0 0
1 1 1
1 2 2
2 0 0
2 1 0
2 2 2
2 4 85 0 9
0 0 3
0 1 0
0 2 2
1 0 2
1 1 0
1 2 0
2 0 1
2 1 3
2 2 0
2 54 84 0 9
0 0 0
0 1 1
0 2 0
1 0 2
1 1 0
1 2 0
2 0 2
2 1 1
2 2 2
2 16 18 0 9
0 0 0
0 1 2
0 2 2
1 0 3
1 1 0
1 2 3
2 0 3
2 1 0
2 2 0
2 32 43 0 9
0 0 0
0 1 1
0 2 0
1 0 0
1 1 3
1 2 3
2 0 0
2 1 1
2 2 3
2 33 45 0 9
0 0 0
0 1 0
0 2 3
1 0 1
1 1 0
1 2 0
2 0 3
2 1 2
2 2 1
2 26 97 0 9
0 0 0
0 1 0
0 2 2
1 0 2
1 1 1
1 2 0
2 0 1
2 1 0
2 2 3
2 59 61 0 9
0 0 0
0 1 1
0 2 2
1 0 3
1 1 0
1 2 0
2 0 0
2 1 3
2 2 3
2 37 42 0 9
0 0 2
0 1 3
0 2 0
1 0 2
1 1 0
1 2 2
2 0 0
2 1 2
2 2 0
2 4 87 0 9
0 0 0
0 1 1
0 2 3
1 0 0
1 1 2
1 2 0
2 0 0
2 1 2
2 2 1
2 77 84 0 9
0 0 0
0 1 3
0 2 3
1 0 2
1 1 2
1 2 0
2 0 0
2 1 0
2 2 1
2 27 77 0 9
0 0 0
0 1 3
0 2 2
1 0 0
1 1 3
1 2 0
2 0 1
2 1 0
2 2 1
2 4 5 0 9
0 0 0
0 1 2
0 2 0
1 0 2
1 1 0
1 2 0
2 0 3
2 1 1
2 2 1
2 4 74 0 9
0 0 1
0 1 3
0 2 1
1 0 0
1 1 0
1 2 0
2 0 1
2 1 2
2 2 0
2 37 97 0 9
0 0 0
0 1 1
0 2 0
1 0 1
1 1 2
1 2 0
2 0 2
2 1 2
2 2 0
2 35 80 0 9
0 0 3
0 1 1
0 2 1
1 0 0
1 1 0
1 2 0
2 0 2
2 1 3
2 2 0
2 70 77 0 9
0 0 1
0 1 1
0 2 0
1 0 0
1 1 0
1 2 1
2 0 0
2 1 2
2 2 1
2 9 82 0 9
0 0 1
0 1 1
0 2 0
1 0 3
1 1 0
1 2 0
2 0 1
2 1 2
2 2 0
2 13 47 0 9
0 0 3
0 1 0
0 2 0
1 0 0
1 1 0
1 2 3
2 0 1
2 1 1
2 2 3
2 30 46 0 9
0 0 0
0 1 2
0 2 2
1 0 0
1 1 3
1 2 0
2 0 1
2 1 2
2 2 0
2 58 95 0 9
0 0 0
0 1 2
0 2 0
1 0 0
1 1 0
1 2 3
2 0 3
2 1 2
2 2 3
2 7 80 0 9
0 0 1
0 1 0
0 2 1
1 0 0
1 1 0
1 2 2
2 0 3
2 1 0
2 2 1
2 25 77 0 9
0 0 1
0 1 3
0 2 0
1 0 0
1 1 3
1 2 0
2 0 3
2 1 0
2 2 2
2 18 74 0 9
0 0 0
0 1 0
0 2 2
1 0 2
1 1 3
1 2 0
2 0 0
2 1 3
2 2 2
2 0 91 0 9
0 0 1
0 1 3
0 2 1
1 0 0
1 1 0
1 2 1
2 0 0
2 1 0
2 2 3
2 52 67 0 9
0 0 0
0 1 1
0 2 3
1 0 1
1 1 1
1 2 3
2 0 0
2 1 0
2 2 0
2 39 82 0 9
0 0 1
0 1 2
0 2 0
1 0 3
1 1 0
1 2 0
2 0 0
2 1 2
2 2 1
2 44 70 0 9
0 0 0
0 1 0
0 2 1
1 0 2
1 1 2
1 2 1
2 0 0
2 1 0
2 2 3
2 63 94 0 9
0 0 3
0 1 1
0 2 1
1 0 0
1 1 0
1 2 3
2 0 0
2 1 0
2 2 2
2 14 55 0 9
0 0 1
0 1 2
0 2 0
1 0 1
1 1 0
1 2 0
2 0 1
2 1 2
2 2 0
2 27 58 0 9
0 0 0
0 1 0
0 2 2
1 0 1
1 1 0
1 2 0
2 0 2
2 1 3
2 2 2
2 16 28 0 9
0 0 1
0 1 2
0 2 0
1 0 1
1 1 3
1 2 2
2 0 0
2 1 0
2 2 0
2 44 57 0 9
0 0 2
0 1 0
0 2 0
1 0 1
1 1 3
1 2 3
2 0 0
2 1 0
2 2 1
2 37 72 0 9
0 0 1
0 1 2
0 2 0
1 0 0
1 1 0
1 2 0
2 0 2
2 1 3
2 2 1
2 61 81 0 9
0 0 3
0 1 0
0 2 2
1 0 0
1 1 2
1 2 3
2 0 0
2 1 0
2 2 2
2 19 33 0 9
0 0 0
0 1 3
0 2 0
1 0 0
1 1 0
1 2 1
2 0 1
2 1 2
2 2 2
2 43 57 0 9
0 0 1
0 1 0
0 2 3
1 0 0
1 1 0
1 2 0
2 0 3
2 1 3
2 2 2
2 69 87 0 9
0 0 1
0 1 3
0 2 0
1 0 0
1 1 3
1 2 1
2 0 0
2 1 2
2 2 0
2 61 93 0 9
0 0 0
0 1 2
0 2 3
1 0 2
1 1 0
1 2 3
2 0 0
2 1 0
2 2 2
2 37 90 0 9
0 0 0
0 1 0
0 2 3
1 0 1
1 1 0
1 2 2
2 0 0
2 1 1
2 2 1
2 15 33 0 9
0 0 0
0 1 0
0 2 3
1 0 1
1 1 2
1 2 3
2 0 1
2 1 0
2 2 0
2 2 84 0 9
0 0 0
0 1 2
0 2 0
1 0 0
1 1 1
1 2 3
2 0 2
2 1 2
2 2 0
2 2 83 0 9
0 0 0
0 1 2
0 2 2
1 0 0
1 1 3
1 2 2
2 0 0
2 1 3
2 2 0
2 56 69 0 9
0 0 0
0 1 3
0 2 0
1 0 2
1 1 0
1 2 0
2 0 2
2 1 1
2 2 1
2 32 80 0 9
0 0 0
0 1 0
0 2 0
1 0 1
1 1 3
1 2 0
2 0 1
2 1 3
2 2 3
2 48 57 0 9
0 0 1
0 1 1
0 2 3
1 0 0
1 1 2
1 2 0
2 0 2
2 1 0
2 2 0
2 2 78 0 9
0 0 2
0 1 0
0 2 3
1 0 2
1 1 0
1 2 3
2 0 0
2 1 0
2 2 3
2 11 43 0 9
0 0 1
0 1 1
0 2 3
1 0 0
1 1 3
1 2 0
2 0 3
2 1 0
2 2 0
2 20 57 0 9
0 0 2
0 1 1
0 2 0
1 0 0
1 1 2
1 2 3
2 0 0
2 1 2
2 2 0
2 44 52 0 9
0 0 3
0 1 0
0 2 1
1 0 0
1 1 2
1 2 0
2 0 1
2 1 0
2 2 2
2 26 94 0 9
0 0 1
0 1 0
0 2 2
1 0 0
1 1 3
1 2 0
2 0 0
2 1 1
2 2 2
2 10 63 0 9
0 0 3
0 1 2
0 2 0
1 0 2
1 1 0
1 2 3
2 0 0
2 1 0
2 2 3
2 9 27 0 9
0 0 0
0 1 1
0 2 2
1 0 3
1 1 0
1 2 3
2 0 0
2 1 2
2 2 0
2 60 79 0 9
0 0 2
0 1 0
0 2 1
1 0 2
1 1 0
1 2 0
2 0 3
2 1 0
2 2 1
2 10 75 0 9
0 0 2
0 1 0
0 2 3
1 0 3
1 1 0
1 2 0
2 0 3
2 1 0
2 2 3
2 13 57 0 9
0 0 0
0 1 1
0 2 3
1 0 1
1 1 0
1 2 3
2 0 0
2 1 2
2 2 0
2 54 65 0 9
0 0 0
0 1 0
0 2 3
1 0 0
1 1 1
1 2 1
2 0 1
2 1 2
2 2 0
2 46 50 0 9
0 0 0
0 1 2
0 2 0
1 0 3
1 1 2
1 2 0
2 0 1
2 1 0
2 2 1
2 35 90 0 9
0 0 3
0 1 3
0 2 0
1 0 2
1 1 3
1 2 0
2 0 3
2 1 0
2 2 0
2 51 90 0 9
0 0 0
0 1 1
0 2 0
1 0 1
1 1 0
1 2 3
2 0 1
2 1 1
2 2 0
2 19 77 0 9
0 0 0
0 1 0
0 2 0
1 0 2
1 1 0
1 2 1
2 0 1
2 1 2
2 2 2
2 53 88 0 9
0 0 2
0 1 0
0 2 2
1 0 2
1 1 0
1 2 3
2 0 0
2 1 2
2 2 0
2 26 62 0 9
0 0 0
0 1 0
0 2 1
1 0 0
1 1 2
1 2 3
2 0 0
2 1 2
2 2 2
2 38 54 0 9
0 0 1
0 1 0
0 2 0
1 0 3
1 1 2
1 2 2
2 0 0
2 1 0
2 2 3
2 8 77 0 9
0 0 1
0 1 3
0 2 0
1 0 0
1 1 3
1 2 0
2 0 1
2 1 0
2 2 1
2 38 77 0 9
0 0 1
0 1 3
0 2 2
1 0 0
1 1 0
1 2 1
2 0 0
2 1 0
2 2 3
2 61 88 0 9
0 0 2
0 1 1
0 2 0
1 0 1
1 1 0
1 2 1
2 0 0
2 1 3
2 2 0
2 85 94 0 9
0 0 2
0 1 1
0 2 0
1 0 1
1 1 0
1 2 0
2 0 1
2 1 0
2 2 3
2 24 43 0 9
0 0 1
0 1 0
0 2 3
1 0 3
1 1 0
1 2 0
2 0 3
2 1 2
2 2 0
2 30 65 0 9
0 0 3
0 1 3
0 2 2
1 0 0
1 1 2
1 2 0
2 0 3
2 1 0
2 2 0
2 8 41 0 9
0 0 0
0 1 3
0 2 2
1 0 0
1 1 0
1 2 0
2 0 2
2 1 3
2 2 2
2 20 56 0 9
0 0 0
0 1 3
0 2 0
1 0 0
1 1 1
1 2 2
2 0 0
2 1 1
2 2 2
2 11 30 0 9
0 0 3
0 1 3
0 2 0
1 0 0
1 1 0
1 2 1
2 0 1
2 1 1
2 2 0
2 30 67 0 9
0 0 1
0 1 0
0 2 0
1 0 1
1 1 1
1 2 0
2 0 1
2 1 0
2 2 2
2 55 98 0 9
0 0 2
0 1 2
0 2 0
1 0 3
1 1 0
1 2 0
2 0 2
2 1 3
2 2 0
2 15 55 0 9
0 0 3
0 1 0
0 2 2
1 0 2
1 1 0
1 2 2
2 0 0
2 1 0
2 2 1
2 67 74 0 9
0 0 1
0 1 1
0 2 3
1 0 0
1 1 0
1 2 0
2 0 1
2 1 1
2 2 0
2 67 81 0 9
0 0 3
0 1 1
0 2 3
1 0 3
1 1 0
1 2 3
2 0 0
2 1 0
2 2 0
2 23 46 0 9
0 0 3
0 1 1
0 2 0
1 0 0
1 1 1
1 2 0
2 0 0
2 1 1
2 2 2
2 17 72 0 9
0 0 0
0 1 0
0 2 0
1 0 1
1 1 2
1 2 3
2 0 1
2 1 0
2 2 2
2 23 88 0 9
0 0 0
0 1 1
0 2 2
1 0 1
1 1 1
1 2 0
2 0 3
2 1 0
2 2 0
2 21 89 0 9
0 0 0
0 1 1
0 2 3
1 0 0
1 1 3
1 2 2
2 0 0
2 1 3
2 2 0
2 0 65 0 9
0 0 2
0 1 0
0 2 2
1 0 2
1 1 3
1 2 0
2 0 1
2 1 0
2 2 0
2 81 83 0 9
0 0 3
0 1 2
0 2 0
1 0 3
1 1 0
1 2 3
2 0 0
2 1 0
2 2 3
2 56 71 0 9
0 0 2
0 1 3
0 2 0
1 0 0
1 1 0
1 2 1
2 0 0
2 1 1
2 2 2
2 48 91 0 9
0 0 3
0 1 1
0 2 2
1 0 0
1 1 1
1 2 0
2 0 0
2 1 1
2 2 0
2 34 74 0 9
0 0 3
0 1 1
0 2 0
1 0 3
1 1 1
1 2 1
2 0 0
2 1 0
2 2 0
2 15 88 0 9
0 0 0
0 1 0
0 2 3
1 0 1
1 1 0
1 2 3
2 0 2
2 1 0
2 2 2
2 0 40 0 9
0 0 0
0 1 1
0 2 2
1 0 3
1 1 2
1 2 0
2 0 0
2 1 2
2 2 0
2 6 70 0 9
0 0 2
0 1 0
0 2 3
1 0 0
1 1 0
1 2 3
2 0 2
2 1 1
2 2 0
2 46 67 0 9
0 0 0
0 1 0
0 2 1
1 0 0
1 1 2
1 2 0
2 0 1
2 1 1
2 2 3
2 50 69 0 9
0 0 0
0 1 0
0 2 1
1 0 1
1 1 2
1 2 1
2 0 2
2 1 0
2 2 0
2 9 89 0 9
0 0 3
0 1 0
0 2 3
1 0 0
1 1 1
1 2 0
2 0 0
2 1 1
2 2 1
2 50 53 0 9
0 0 1
0 1 0
0 2 1
1 0 0
1 1 2
1 2 3
2 0 0
2 1 0
2 2 1
2 6 75 0 9
0 0 1
0 1 0
0 2 2
1 0 1
1 1 0
1 2 0
2 0 3
2 1 2
2 2 0
2 28 60 0 9
0 0 0
0 1 0
0 2 0
1 0 2
1 1 1
1 2 3
2 0 0
2 1 3
2 2 3
2 21 51 0 9
0 0 0
0 1 2
0 2 0
1 0 1
1 1 0
1 2 2
2 0 1
2 1 3
2 2 0
2 43 49 0 9
0 0 0
0 1 3
0 2 0
1 0 0
1 1 1
1 2 2
2 0 0
2 1 2
2 2 1
2 50 57 0 9
0 0 3
0 1 3
0 2 3
1 0 0
1 1 3
1 2 0
2 0 0
2 1 1
2 2 0
2 24 61 0 9
0 0 3
0 1 0
0 2 2
1 0 0
1 1 1
1 2 0
2 0 3
2 1 0
2 2 1
2 57 83 0 9
0 0 2
0 1 2
0 2 1
1 0 2
1 1 0
1 2 0
2 0 0
2 1 0
2 2 2
2 20 59 0 9
0 0 1
0 1 2
0 2 2
1 0 0
1 1 0
1 2 0
2 0 2
2 1 2
2 2 0
2 37 64 0 9
0 0 0
0 1 3
0 2 1
1 0 0
1 1 1
1 2 1
2 0 0
2 1 0
2 2 1
2 0 32 0 9
0 0 0
0 1 3
0 2 0
1 0 2
1 1 2
1 2 0
2 0 2
2 1 3
2 2 0
2 5 78 0 9
0 0 0
0 1 1
0 2 1
1 0 1
1 1 0
1 2 0
2 0 0
2 1 3
2 2 3
2 28 65 0 9
0 0 0
0 1 3
0 2 0
1 0 3
1 1 1
1 2 0
2 0 3
2 1 3
2 2 0
2 1 75 0 9
0 0 0
0 1 0
0 2 0
1 0 2
1 1 1
1 2 3
2 0 1
2 1 2
2 2 0
2 2 59 0 9
0 0 1
0 1 1
0 2 0
1 0 0
1 1 0
1 2 1
2 0 3
2 1 1
2 2 0
2 6 85 0 9
0 0 3
0 1 0
0 2 1
1 0 0
1 1 0
1 2 2
2 0 0
2 1 3
2 2 2
2 44 47 0 9
0 0 0
0 1 2
0 2 1
1 0 0
1 1 0
1 2 1
2 0 2
2 1 3
2 2 0
2 44 46 0 9
0 0 3
0 1 0
0 2 2
1 0 0
1 1 1
1 2 3
2 0 1
2 1 0
2 2 0
2 66 80 0 9
0 0 0
0 1 0
0 2 2
1 0 1
1 1 3
1 2 1
2 0 0
2 1 0
2 2 1
2 74 99 0 9
0 0 0
0 1 0
0 2 3
1 0 0
1 1 1
1 2 3
2 0 2
2 1 1
2 2 0
2 65 82 0 9
0 0 1
0 1 0
0 2 0
1 0 3
1 1 0
1 2 2
2 0 3
2 1 2
2 2 0
2 62 82 0 9
0 0 2
0 1 0
0 2 1
1 0 2
1 1 3
1 2 2
2 0 0
2 1 0
2 2 0
2 12 25 0 9
0 0 0
0 1 1
0 2 2
1 0 0
1 1 1
1 2 0
2 0 2
2 1 3
2 2 0
2 23 73 0 9
0 0 0
0 1 1
0 2 0
1 0 1
1 1 1
1 2 0
2 0 1
2 1 2
2 2 0
2 14 84 0 9
0 0 3
0 1 3
0 2 0
1 0 3
1 1 0
1 2 3
2 0 0
2 1 0
2 2 1
2 25 69 0 9
0 0 0
0 1 0
0 2 0
1 0 1
1 1 3
1 2 1
2 0 1
2 1 0
2 2 1
2 9 54 0 9
0 0 3
0 1 0
0 2 0
1 0 1
1 1 2
1 2 3
2 0 0
2 1 0
2 2 2
2 30 50 0 9
0 0 0
0 1 0
0 2 2
1 0 1
1 1 1
1 2 1
2 0 0
2 1 3
2 2 0
2 9 35 0 9
0 0 0
0 1 3
0 2 0
1 0 3
1 1 3
1 2 2
2 0 2
2 1 0
2 2 0
2 49 81 0 9
0 0 1
0 1 2
0 2 2
1 0 0
1 1 0
1 2 1
2 0 0
2 1 1
2 2 0
2 34 51 0 9
0 0 0
0 1 3
0 2 3
1 0 0
1 1 3
1 2 0
2 0 3
2 1 1
2 2 0
2 8 51 0 9
0 0 0
0 1 2
0 2 2
1 0 0
1 1 3
1 2 3
2 0 2
2 1 0
2 2 0
2 28 50 0 9
0 0 3
0 1 0
0 2 2
1 0 0
1 1 0
1 2 1
2 0 0
2 1 1
2 2 2
2 5 45 0 9
0 0 0
0 1 3
0 2 0
1 0 0
1 1 2
1 2 2
2 0 0
2 1 2
2 2 1
2 2 37 0 9
0 0 0
0 1 0
0 2 3
1 0 1
1 1 2
1 2 3
2 0 2
2 1 0
2 2 0
2 5 98 0 9
0 0 2
0 1 0
0 2 3
1 0 1
1 1 0
1 2 2
2 0 0
2 1 2
2 2 0
2 37 50 0 9
0 0 0
0 1 2
0 2 2
1 0 0
1 1 0
1 2 3
2 0 3
2 1 0
2 2 1
2 18 72 0 9
0 0 0
0 1 2
0 2 0
1 0 0
1 1 2
1 2 0
2 0 1
2 1 2
2 2 1
2 12 97 0 9
0 0 0
0 1 1
0 2 0
1 0 1
1 1 0
1 2 0
2 0 3
2 1 3
2 2 3
2 19 75 0 9
0 0 0
0 1 2
0 2 0
1 0 0
1 1 3
1 2 0
2 0 2
2 1 2
2 2 3
2 11 64 0 9
0 0 1
0 1 0
0 2 0
1 0 0
1 1 3
1 2 2
2 0 3
2 1 3
2 2 0
2 54 89 0 9
0 0 1
0 1 0
0 2 2
1 0 0
1 1 2
1 2 0
2 0 3
2 1 1
2 2 0
2 58 61 0 9
0 0 1
0 1 2
0 2 3
1 0 0
1 1 3
1 2 0
2 0 0
2 1 0
2 2 2
2 18 34 0 9
0 0 0
0 1 0
0 2 0
1 0 1
1 1 1
1 2 2
2 0 0
2 1 3
2 2 3
2 21 42 0 9
0 0 0
0 1 0
0 2 1
1 0 3
1 1 3
1 2 0
2 0 0
2 1 2
2 2 2
2 61 77 0 9
0 0 3
0 1 3
0 2 0
1 0 2
1 1 0
1 2 3
2 0 1
2 1 0
2 2 0
2 27 90 0 9
0 0 3
0 1 3
0 2 0
1 0 0
1 1 0
1 2 3
2 0 2
2 1 0
2 2 1
2 5 7 0 9
0 0 0
0 1 1
0 2 0
1 0 1
1 1 1
1 2 0
2 0 1
2 1 1
2 2 0
2 11 13 0 9
0 0 2
0 1 3
0 2 1
1 0 1
1 1 2
1 2 0
2 0 0
2 1 0
2 2 0
2 70 74 0 9
0 0 0
0 1 0
0 2 1
1 0 3
1 1 2
1 2 0
2 0 1
2 1 2
2 2 0
2 9 98 0 9
0 0 0
0 1 3
0 2 0
1 0 3
1 1 1
1 2 0
2 0 0
2 1 1
2 2 3
2 11 74 0 9
0 0 1
0 1 1
0 2 1
1 0 0
1 1 0
1 2 0
2 0 0
2 1 1
2 2 3
2 45 91 0 9
0 0 3
0 1 0
0 2 1
1 0 1
1 1 0
1 2 3
2 0 0
2 1 0
2 2 1
2 41 91 0 9
0 0 0
0 1 0
0 2 0
1 0 3
1 1 2
1 2 0
2 0 1
2 1 2
2 2 3
2 27 40 0 9
0 0 2
0 1 0
0 2 0
1 0 3
1 1 0
1 2 1
2 0 2
2 1 0
2 2 1
2 12 45 0 9
0 0 3
0 1 0
0 2 0
1 0 0
1 1 0
1 2 2
2 0 1
2 1 2
2 2 2
2 58 71 0 9
0 0 0
0 1 1
0 2 1
1 0 0
1 1 1
1 2 0
2 0 2
2 1 0
2 2 2
2 74 75 0 9
0 0 0
0 1 3
0 2 0
1 0 0
1 1 1
1 2 0
2 0 3
2 1 2
2 2 1
2 50 51 0 9
0 0 3
0 1 3
0 2 0
1 0 0
1 1 2
1 2 0
2 0 2
2 1 3
2 2 0
2 43 61 0 9
0 0 0
0 1 2
0 2 0
1 0 3
1 1 3
1 2 0
2 0 1
2 1 1
2 2 0
2 58 64 0 9
0 0 1
0 1 0
0 2 1
1 0 1
1 1 0
1 2 0
2 0 2
2 1 3
2 2 0
2 77 81 0 9
0 0 2
0 1 1
0 2 1
1 0 2
1 1 0
1 2 0
2 0 0
2 1 3
2 2 0
2 64 97 0 9
0 0 3
0 1 1
0 2 0
1 0 1
1 1 0
1 2 3
2 0 3
2 1 0
2 2 0
2 14 46 0 9
0 0 1
0 1 0
0 2 0
1 0 0
1 1 0
1 2 1
2 0 1
2 1 1
2 2 1
2 20 84 0 9
0 0 1
0 1 0
0 2 0
1 0 1
1 1 0
1 2 0
2 0 1
2 1 3
2 2 3
2 29 50 0 9
0 0 0
0 1 2
0 2 1
1 0 2
1 1 0
1 2 0
2 0 1
2 1 3
2 2 0
2 17 47 0 9
0 0 0
0 1 0
0 2 3
1 0 2
1 1 0
1 2 3
2 0 2
2 1 0
2 2 2
2 22 56 0 9
0 0 0
0 1 0
0 2 0
1 0 3
1 1 2
1 2 0
2 0 3
2 1 2
2 2 1
2 16 45 0 9
0 0 0
0 1 0
0 2 0
1 0 0
1 1 1
1 2 1
2 0 2
2 1 3
2 2 1
2 17 88 0 9
0 0 2
0 1 0
0 2 1
1 0 2
1 1 0
1 2 3
2 0 0
2 1 0
2 2 3
2 14 66 0 9
0 0 3
0 1 0
0 2 0
1 0 1
1 1 1
1 2 0
2 0 3
2 1 0
2 2 3
2 13 54 0 9
0 0 0
0 1 0
0 2 3
1 0 3
1 1 0
1 2 3
2 0 2
2 1 0
2 2 3
2 4 83 0 9
0 0 0
0 1 0
0 2 3
1 0 1
1 1 3
1 2 0
2 0 1
2 1 3
2 2 0
2 11 59 0 9
0 0 1
0 1 2
0 2 0
1 0 2
1 1 2
1 2 0
2 0 0
2 1 2
2 2 0
2 0 57 0 9
0 0 2
0 1 2
0 2 0
1 0 0
1 1 1
1 2 0
2 0 0
2 1 3
2 2 2
2 14 34 0 9
0 0 2
0 1 3
0 2 3
1 0 0
1 1 0
1 2 0
2 0 0
2 1 3
2 2 3
2 64 78 0 9
0 0 2
0 1 0
0 2 0
1 0 0
1 1 1
1 2 1
2 0 2
2 1 3
2 2 0
2 46 92 0 9
0 0 3
0 1 1
0 2 0
1 0 2
1 1 0
1 2 0
2 0 3
2 1 1
2 2 0
2 54 74 0 9
0 0 2
0 1 1
0 2 0
1 0 3
1 1 1
1 2 0
2 0 0
2 1 0
2 2 3
2 76 96 0 9
0 0 3
0 1 0
0 2 3
1 0 0
1 1 3
1 2 3
2 0 1
2 1 0
2 2 0
2 79 86 0 9
0 0 1
0 1 0
0 2 1
1 0 2
1 1 0
1 2 3
2 0 0
2 1 0
2 2 2
2 36 78 0 9
0 0 2
0 1 2
0 2 2
1 0 0
1 1 0
1 2 3
2 0 2
2 1 0
2 2 0
2 44 45 0 9
0 0 0
0 1 2
0 2 0
1 0 3
1 1 0
1 2 1
2 0 2
2 1 2
2 2 0
2 45 86 0 9
0 0 2
0 1 0
0 2 1
1 0 0
1 1 0
1 2 3
2 0 1
2 1 0
2 2 2
2 4 31 0 9
0 0 0
0 1 1
0 2 2
1 0 2
1 1 2
1 2 2
2 0 0
2 1 0
2 2 0
2 39 79 0 9
0 0 3
0 1 3
0 2 1
1 0 3
1 1 0
1 2 0
2 0 0
2 1 1
2 2 0
2 28 93 0 9
0 0 2
0 1 0
0 2 1
1 0 3
1 1 0
1 2 1
2 0 0
2 1 0
2 2 3
2 80 88 0 9
0 0 0
0 1 2
0 2 2
1 0 0
1 1 2
1 2 3
2 0 0
2 1 3
2 2 0
2 54 87 0 9
0 0 0
0 1 2
0 2 2
1 0 0
1 1 3
1 2 0
2 0 1
2 1 0
2 2 3
2 68 85 0 9
0 0 2
0 1 3
0 2 2
1 0 1
1 1 0
1 2 0
2 0 0
2 1 3
2 2 0
2 29 99 0 9
0 0 1
0 1 0
0 2 3
1 0 0
1 1 0
1 2 1
2 0 3
2 1 1
2 2 0
2 68 93 0 9
0 0 0
0 1 1
0 2 3
1 0 1
1 1 1
1 2 0
2 0 1
2 1 0
2 2 0
2 22 47 0 9
0 0 1
0 1 3
0 2 1
1 0 1
1 1 1
1 2 0
2 0 0
2 1 0
2 2 0
2 15 20 0 9
0 0 2
0 1 0
0 2 2
1 0 0
1 1 2
1 2 0
2 0 3
2 1 0
2 2 2
2 70 94 0 9
0 0 1
0 1 0
0 2 1
1 0 2
1 1 0
1 2 3
2 0 3
2 1 0
2 2 0
2 34 77 0 9
0 0 0
0 1 0
0 2 3
1 0 0
1 1 0
1 2 1
2 0 1
2 1 2
2 2 1
2 14 49 0 9
0 0 1
0 1 3
0 2 0
1 0 1
1 1 2
1 2 1
2 0 0
2 1 0
2 2 0
2 65 79 0 9
0 0 3
0 1 2
0 2 0
1 0 2
1 1 0
1 2 1
2 0 0
2 1 0
2 2 1
2 13 89 0 9
0 0 3
0 1 2
0 2 1
1 0 0
1 1 0
1 2 1
2 0 0
2 1 0
2 2 1
2 10 84 0 9
0 0 0
0 1 1
0 2 3
1 0 0
1 1 0
1 2 3
2 0 2
2 1 1
2 2 0
2 27 78 0 9
0 0 2
0 1 3
0 2 0
1 0 3
1 1 0
1 2 2
2 0 3
2 1 0
2 2 0
2 17 58 0 9
0 0 3
0 1 2
0 2 3
1 0 0
1 1 2
1 2 0
2 0 0
2 1 0
2 2 3
2 10 46 0 9
0 0 0
0 1 3
0 2 0
1 0 0
1 1 1
1 2 3
2 0 1
2 1 0
2 2 3
2 39 84 0 9
0 0 1
0 1 0
0 2 2
1 0 1
1 1 1
1 2 0
2 0 1
2 1 0
2 2 0
2 9 81 0 9
0 0 2
0 1 3
0 2 3
1 0 3
1 1 0
1 2 2
2 0 0
2 1 0
2 2 0
2 30 77 0 9
0 0 0
0 1 1
0 2 0
1 0 0
1 1 1
1 2 0
2 0 3
2 1 2
2 2 2
2 2 91 0 9
0 0 1
0 1 3
0 2 0
1 0 3
1 1 0
1 2 1
2 0 0
2 1 0
2 2 3
2 57 90 0 9
0 0 0
0 1 0
0 2 1
1 0 3
1 1 3
1 2 1
2 0 0
2 1 0
2 2 2
2 31 92 0 9
0 0 0
0 1 1
0 2 0
1 0 3
1 1 0
1 2 0
2 0 3
2 1 3
2 2 1
2 45 68 0 9
0 0 0
0 1 0
0 2 1
1 0 0
1 1 0
1 2 3
2 0 1
2 1 2
2 2 1
2 62 96 0 9
0 0 2
0 1 0
0 2 1
1 0 0
1 1 2
1 2 3
2 0 0
2 1 1
2 2 0
2 24 96 0 9
0 0 0
0 1 3
0 2 3
1 0 0
1 1 1
1 2 2
2 0 3
2 1 0
2 2 0
2 44 63 0 9
0 0 2
0 1 0
0 2 2
1 0 0
1 1 1
1 2 0
2 0 0
2 1 1
2 2 1
2 14 31 0 9
0 0 1
0 1 2
0 2 0
1 0 3
1 1 0
1 2 0
2 0 2
2 1 3
2 2 0
2 5 93 0 9
0 0 2
0 1 2
0 2 2
1 0 3
1 1 3
1 2 0
2 0 0
2 1 0
2 2 0
2 41 56 0 9
0 0 0
0 1 0
0 2 0
1 0 0
1 1 2
1 2 2
2 0 1
2 1 2
2 2 3
2 11 72 0 9
0 0 0
0 1 3
0 2 1
1 0 0
1 1 2
1 2 2
2 0 3
2 1 0
2 2 0
2 27 60 0 9
0 0 3
0 1 0
0 2 0
1 0 0
1 1 0
1 2 1
2 0 2
2 1 2
2 2 3
2 21 85 0 9
0 0 2
0 1 0
0 2 3
1 0 0
1 1 0
1 2 3
2 0 3
2 1 3
2 2 0
2 10 31 0 9
0 0 2
0 1 3
0 2 0
1 0 3
1 1 2
1 2 0
2 0 0
2 1 0
2 2 1
2 5 22 0 9
0 0 0
0 1 0
0 2 0
1 0 0
1 1 1
1 2 1
2 0 1
2 1 3
2 2 1
2 18 92 0 9
0 0 3
0 1 3
0 2 0
1 0 3
1 1 1
1 2 0
2 0 3
2 1 0
2 2 0
2 9 88 0 9
0 0 0
0 1 3
0 2 3
1 0 0
1 1 2
1 2 0
2 0 0
2 1 2
2 2 3
2 39 48 0 9
0 0 2
0 1 2
0 2 0
1 0 0
1 1 3
1 2 0
2 0 0
2 1 3
2 2 2
2 5 29 0 9
0 0 3
0 1 0
0 2 0
1 0 2
1 1 0
1 2 2
2 0 3
2 1 0
2 2 3
2 86 91 0 9
0 0 0
0 1 1
0 2 3
1 0 1
1 1 3
1 2 0
2 0 0
2 1 0
2 2 2
2 12 42 0 9
0 0 0
0 1 2
0 2 3
1 0 1
1 1 0
1 2 2
2 0 0
2 1 1
2 2 0
2 0 90 0 9
0 0 0
0 1 1
0 2 2
1 0 3
1 1 0
1 2 0
2 0 1
2 1 2
2 2 0
2 46 53 0 9
0 0 0
0 1 0
0 2 1
1 0 3
1 1 2
1 2 2
2 0 0
2 1 3
2 2 0
2 20 37 0 9
0 0 0
0 1 0
0 2 3
1 0 0
1 1 0
1 2 1
2 0 1
2 1 1
2 2 3
2 32 42 0 9
0 0 2
0 1 0
0 2 1
1 0 2
1 1 1
1 2 2
2 0 0
2 1 0
2 2 0
2 17 49 0 9
0 0 1
0 1 3
0 2 0
1 0 1
1 1 0
1 2 1
2 0 0
2 1 3
2 2 0
2 24 55 0 9
0 0 0
0 1 0
0 2 1
1 0 0
1 1 2
1 2 2
2 0 1
2 1 0
2 2 2
2 61 71 0 9
0 0 1
0 1 0
0 2 2
1 0 0
1 1 3
1 2 0
2 0 3
2 1 1
2 2 0
2 25 65 0 9
0 0 0
0 1 3
0 2 0
1 0 2
1 1 0
1 2 3
2 0 1
2 1 3
2 2 0
2 34 82 0 9
0 0 0
0 1 0
0 2 0
1 0 3
1 1 0
1 2 1
2 0 1
2 1 2
2 2 2
2 12 92 0 9
0 0 0
0 1 0
0 2 0
1 0 2
1 1 2
1 2 1
2 0 3
2 1 0
2 2 1
2 38 42 0 9
0 0 2
0 1 2
0 2 0
1 0 1
1 1 0
1 2 0
2 0 2
2 1 2
2 2 0
2 4 89 0 9
0 0 0
0 1 0
0 2 1
1 0 3
1 1 3
1 2 3
2 0 1
2 1 0
2 2 0
2 49 90 0 9
0 0 3
0 1 3
0 2 0
1 0 0
1 1 2
1 2 0
2 0 3
2 1 0
2 2 2
2 84 88 0 9
0 0 1
0 1 0
0 2 1
1 0 1
1 1 3
1 2 0
2 0 0
2 1 2
2 2 0
2 16 65 0 9
0 0 0
0 1 0
0 2 0
1 0 0
1 1 1
1 2 3
2 0 1
2 1 2
2 2 2
2 2 29 0 9
0 0 0
0 1 0
0 2 0
1 0 0
1 1 3
1 2 2
2 0 2
2 1 2
2 2 1
2 18 71 0 9
0 0 2
0 1 0
0 2 3
1 0 3
1 1 1
1 2 0
2 0 0
2 1 1
2 2 0
2 3 55 0 9
0 0 3
0 1 0
0 2 0
1 0 2
1 1 3
1 2 0
2 0 0
2 1 1
2 2 1
2 29 85 0 9
0 0 0
0 1 0
0 2 0
1 0 2
1 1 1
1 2 1
2 0 1
2 1 0
2 2 2
2 59 92 0 9
0 0 2
0 1 1
0 2 3
1 0 0
1 1 0
1 2 2
2 0 0
2 1 3
2 2 0
2 59 75 0 9
0 0 2
0 1 3
0 2 2
1 0 0
1 1 0
1 2 0
2 0 0
2 1 1
2 2 3
2 66 88 0 9
0 0 0
0 1 2
0 2 0
1 0 0
1 1 3
1 2 0
2 0 1
2 1 3
2 2 2
2 36 61 0 9
0 0 3
0 1 0
0 2 0
1 0 2
1 1 2
1 2 0
2 0 2
2 1 3
2 2 0
2 22 83 0 9
0 0 3
0 1 0
0 2 3
1 0 2
1 1 0
1 2 0
2 0 0
2 1 2
2 2 3
2 40 74 0 9
0 0 3
0 1 3
0 2 0
1 0 2
1 1 3
1 2 0
2 0 1
2 1 0
2 2 0
2 61 99 0 9
0 0 1
0 1 2
0 2 0
1 0 0
1 1 3
1 2 0
2 0 1
2 1 1
2 2 0
2 25 38 0 9
0 0 3
0 1 1
0 2 2
1 0 0
1 1 0
1 2 0
2 0 3
2 1 2
2 2 0
2 5 57 0 9
0 0 0
0 1 0
0 2 3
1 0 0
1 1 2
1 2 1
2 0 0
2 1 1
2 2 1
2 10 57 0 9
0 0 1
0 1 0
0 2 2
1 0 1
1 1 0
1 2 1
2 0 2
2 1 0
2 2 0
2 11 69 0 9
0 0 0
0 1 1
0 2 1
1 0 1
1 1 0
1 2 3
2 0 2
2 1 0
2 2 0
1 0 512409557603043100 3
0 1
1 0
2 1
1 1 512409557603043100 3
0 0
1 1
2 0
1 2 512409557603043100 3
0 2
1 1
2 0
1 3 512409557603043100 3
0 0
1 2
2 1
1 4 512409557603043100 3
0 2
1 0
2 0
1 5 512409557603043100 3
0 3
1 0
2 0
1 6 512409557603043100 3
0 0
1 0
2 0
1 7 512409557603043100 3
0 0
1 1
2 0
1 8 512409557603043100 3
0 1
1 2
2 0
1 9 512409557603043100 3
0 0
1 1
2 1
1 10 512409557603043100 3
0 1
1 0
2 3
1 11 512409557603043100 3
0 1
1 0
2 1
1 12 512409557603043100 3
0 0
1 0
2 1
1 13 512409557603043100 3
0 1
1 1
2 0
1 14 512409557603043100 3
0 0
1 1
2 1
1 15 512409557603043100 3
0 0
1 1
2 2
1 16 512409557603043100 3
0 1
1 0
2 2
1 17 512409557603043100 3
0 0
1 3
2 3
1 18 512409557603043100 3
0 0
1 0
2 0
1 19 512409557603043100 3
0 0
1 2
2 0
1 20 512409557603043100 3
0 2
1 2
2 0
1 21 512409557603043100 3
0 1
1 2
2 0
1 22 512409557603043100 3
0 0
1 2
2 1
1 23 512409557603043100 3
0 0
1 3
2 1
1 24 512409557603043100 3
0 2
1 0
2 1
1 25 512409557603043100 3
0 0
1 3
2 1
1 26 512409557603043100 3
0 0
1 0
2 2
1 27 512409557603043100 3
0 0
1 0
2 0
1 28 512409557603043100 3
0 2
1 1
2 0
1 29 512409557603043100 3
0 0
1 0
2 2
1 30 512409557603043100 3
0 0
1 3
2 1
1 31 512409557603043100 3
0 1
1 2
2 0
1 32 512409557603043100 3
0 0
1 3
2 0
1 33 512409557603043100 3
0 0
1 0
2 1
1 34 512409557603043100 3
0 0
1 2
2 0
1 35 512409557603043100 3
0 1
1 0
2 1
1 36 512409557603043100 3
0 1
1 0
2 1
1 37 512409557603043100 3
0 0
1 1
2 2
1 38 512409557603043100 3
0 1
1 0
2 1
1 39 512409557603043100 3
0 2
1 3
2 0
1 40 512409557603043100 3
0 0
1 0
2 0
1 41 512409557603043100 3
0 0
1 0
2 2
1 42 512409557603043100 3
0 0
1 2
2 1
1 43 512409557603043100 3
0 1
1 2
2 0
1 44 512409557603043100 3
0 0
1 3
2 0
1 45 512409557603043100 3
0 0
1 0
2 2
1 46 512409557603043100 3
0 1
1 0
2 2
1 47 512409557603043100 3
0 0
1 2
2 2
1 48 512409557603043100 3
0 2
1 0
2 0
1 49 512409557603043100 3
0 1
1 0
2 1
1 50 512409557603043100 3
0 1
1 0
2 3
1 51 512409557603043100 3
0 3
1 1
2 0
1 52 512409557603043100 3
0 0
1 3
2 3
1 53 512409557603043100 3
0 2
1 1
2 0
1 54 512409557603043100 3
0 2
1 0
2 0
1 55 512409557603043100 3
0 2
1 0
2 0
1 56 512409557603043100 3
0 2
1 1
2 0
1 57 512409557603043100 3
0 1
1 0
2 1
1 58 512409557603043100 3
0 3
1 0
2 0
1 59 512409557603043100 3
0 2
1 0
2 0
1 60 512409557603043100 3
0 3
1 0
2 3
1 61 512409557603043100 3
0 2
1 1
2 0
1 62 512409557603043100 3
0 1
1 1
2 0
1 63 512409557603043100 3
0 0
1 0
2 0
1 64 512409557603043100 3
0 1
1 0
2 3
1 65 512409557603043100 3
0 2
1 2
2 0
1 66 512409557603043100 3
0 0
1 2
2 3
1 67 512409557603043100 3
0 0
1 2
2 0
1 68 512409557603043100 3
0 2
1 0
2 2
1 69 512409557603043100 3
0 2
1 2
2 0
1 70 512409557603043100 3
0 0
1 1
2 0
1 71 512409557603043100 3
0 0
1 0
2 3
1 72 512409557603043100 3
0 0
1 0
2 0
1 73 512409557603043100 3
0 0
1 0
2 1
1 74 512409557603043100 3
0 3
1 1
2 0
1 75 512409557603043100 3
0 2
1 0
2 2
1 76 512409557603043100 3
0 0
1 0
2 0
1 77 512409557603043100 3
0 1
1 0
2 1
1 78 512409557603043100 3
0 3
1 2
2 0
1 79 512409557603043100 3
0 0
1 0
2 0
1 80 512409557603043100 3
0 3
1 1
2 0
1 81 512409557603043100 3
0 0
1 0
2 0
1 82 512409557603043100 3
0 0
1 0
2 1
1 83 512409557603043100 3
0 0
1 0
2 0
1 84 512409557603043100 3
0 2
1 0
2 0
1 85 512409557603043100 3
0 0
1 0
2 1
1 86 512409557603043100 3
0 0
1 2
2 1
1 87 512409557603043100 3
0 2
1 0
2 0
1 88 512409557603043100 3
0 1
1 2
2 0
1 89 512409557603043100 3
0 1
1 0
2 1
1 90 512409557603043100 3
0 3
1 2
2 0
1 91 512409557603043100 3
0 0
1 0
2 0
1 92 512409557603043100 3
0 0
1 0
2 3
1 93 512409557603043100 3
0 2
1 0
2 0
1 94 512409557603043100 3
0 0
1 0
2 1
1 95 512409557603043100 3
0 0
1 0
2 2
1 96 512409557603043100 3
0 2
1 1
2 0
1 97 512409557603043100 3
0 2
1 0
2 0
1 98 512409557603043100 3
0 1
1 0
2 2
1 99 512409557603043100 3
0 3
1 3
2 0
0 63 0
